
Gurobi 11.0.2 (linux64) logging started Tue 03 Dec 2024 09:04:03 AM CET

Set parameter LogFile to value "./res/knapPI_11_50_1000/knapPI_11_50_1000_22/grb_dom.log"
Set parameter Presolve to value 0
Set parameter Aggregate to value 0
Set parameter Heuristics to value 0
Set parameter LPWarmStart to value 0
Set parameter NLPHeur to value 0
Set parameter PreDepRow to value 0
Set parameter PreDual to value 0
Set parameter RINS to value 0
Set parameter Symmetry to value 0
Set parameter NodeLimit to value 1
Set parameter Threads to value 1

Gurobi 11.0.2 (linux64) logging started Tue 03 Dec 2024 09:04:05 AM CET

Set parameter LogFile to value "./res/knapPI_11_50_1000/knapPI_11_50_1000_22/grb_dom.log"
Set parameter NLPHeur to value 0
Set parameter LPWarmStart to value 0
Set parameter PreDepRow to value 0
Set parameter Symmetry to value 0
Set parameter Presolve to value 0
Gurobi Optimizer version 11.0.2 build v11.0.2rc0 (linux64 - "Pop!_OS 20.04 LTS")

CPU model: Intel(R) Core(TM) i7-8650U CPU @ 1.90GHz, instruction set [SSE2|AVX|AVX2]
Thread count: 4 physical cores, 4 logical processors, using up to 1 threads

Optimize a model with 22426 rows, 50 columns and 525940 nonzeros
Model fingerprint: 0xbf0355d8
Variable types: 0 continuous, 50 integer (50 binary)
Coefficient statistics:
  Matrix range     [1e+00, 2e+03]
  Objective range  [1e+02, 2e+03]
  Bounds range     [0e+00, 0e+00]
  RHS range        [6e+03, 6e+03]
Variable types: 0 continuous, 50 integer (50 binary)

Root relaxation: objective 2.050347e+04, 1 iterations, 0.11 seconds (0.01 work units)

    Nodes    |    Current Node    |     Objective Bounds      |     Work
 Expl Unexpl |  Obj  Depth IntInf | Incumbent    BestBd   Gap | It/Node Time

     0     0 20503.4725    0    1          - 20503.4725      -     -    0s
     0     0 20503.4725    0    1          - 20503.4725      -     -    0s
     0     0 20503.4725    0    3          - 20503.4725      -     -    0s
     0     0 20503.4725    0    4          - 20503.4725      -     -    1s
     0     0 20503.4725    0    1          - 20503.4725      -     -    1s
     0     0 20503.4725    0    4          - 20503.4725      -     -    2s
     0     0 20503.4725    0    2          - 20503.4725      -     -    2s
     0     0 20503.4725    0    3          - 20503.4725      -     -    3s
*    0     0               0    20414.000000 20414.0000  0.00%     -    3s

Cutting planes:
  Gomory: 1
  Cover: 1
  MIR: 1
  StrongCG: 2
  RLT: 1

Explored 1 nodes (22 simplex iterations) in 3.14 seconds (1.84 work units)
Thread count was 1 (of 4 available processors)

Solution count 1: 20414 

Optimal solution found (tolerance 1.00e-04)
Best objective 2.041400000000e+04, best bound 2.041400000000e+04, gap 0.0000%

User-callback calls 1469, time in user-callback 0.01 sec
opt = true
obj = 20414.0
nb_dom_cuts = 22425
solved_time = 3.1464
opt_val = 20414.0
